NAME : n100w100.004.844.tour
COMMENT : Length = 844
COMMENT : Found by LKH [Keld Helsgaun] Tue Nov  7 19:45:12 2017
TYPE : TOUR
DIMENSION : 101
TOUR_SECTION
1
79
98
13
23
70
16
12
58
28
90
40
35
4
14
96
49
72
55
53
93
20
100
77
95
41
31
92
8
42
39
44
25
34
43
63
26
3
45
48
91
5
37
80
19
66
65
89
83
97
22
75
60
76
36
11
61
18
33
71
69
81
74
78
59
68
32
67
73
30
84
86
62
82
57
7
21
52
15
54
50
24
38
10
99
88
87
27
51
29
46
64
47
56
2
6
9
85
17
94
101
-1
EOF
